#                                                   
#          <|                                       
#           A                                       
#          /.\                                     
#     <|  [""M#                                   
#      A   | #              Clan McCloog Castle     
#     /.\ [""M#             [File generated by Clan 0.5.0 64 bits]
#    [""M# | #  U"U#U                            
#     | #  | #  \ .:/                              
#     | #  | #___| #                                
#     | "--'     .-"                              
#   |"-"-"-"-"-#-#-##                          
#   |     # ## ######                               
#    \       .::::'/                               
#     \      ::::'/                                
#   :8a|    # # ##                                  
#   ::88a      ###                                  
#  ::::888a  8a ##::.                               
#  ::::::888a88a[]::::                              
# :::::::::SUNDOGa8a::::. ..                        
# :::::8::::888:Y8888:::::::::...                   
#::':::88::::888::Y88a______________________________________________________
#:: ::::88a::::88a:Y88a                                  __---__-- __
#' .: ::Y88a:::::8a:Y88a                            __----_-- -------_-__
#  :' ::::8P::::::::::88aa.                   _ _- --  --_ --- __  --- __--
#.::  :::::::::::::::::::Y88as88a...s88aa.

SCoP

# =============================================== Global
# Language
C

# Context
0 2

# Parameter names are not provided
0

# Number of statements
0

# =============================================== Options
<arrays>
0
</arrays>
