#                                                   
#          <|                                       
#           A                                       
#          /.\                                     
#     <|  [""M#                                   
#      A   | #              Clan McCloog Castle     
#     /.\ [""M#             [File generated by Clan 0.5.0 64 bits]
#    [""M# | #  U"U#U                            
#     | #  | #  \ .:/                              
#     | #  | #___| #                                
#     | "--'     .-"                              
#   |"-"-"-"-"-#-#-##                          
#   |     # ## ######                               
#    \       .::::'/                               
#     \      ::::'/                                
#   :8a|    # # ##                                  
#   ::88a      ###                                  
#  ::::888a  8a ##::.                               
#  ::::::888a88a[]::::                              
# :::::::::SUNDOGa8a::::. ..                        
# :::::8::::888:Y8888:::::::::...                   
#::':::88::::888::Y88a______________________________________________________
#:: ::::88a::::88a:Y88a                                  __---__-- __
#' .: ::Y88a:::::8a:Y88a                            __----_-- -------_-__
#  :' ::::8P::::::::::88aa.                   _ _- --  --_ --- __  --- __--
#.::  :::::::::::::::::::Y88as88a...s88aa.

SCoP

# =============================================== Global
# Language
C

# Context
0 3

# Parameter names are provided
1
# Parameter names
N 

# Number of statements
1

# =============================================== Statement 1
# ----------------------------------------------  1.1 Domain
# Iteration domain
1
2 4
   1    1    0    0    ## i >= 0
   1   -1    1   -1    ## -i+N-1 >= 0

# ----------------------------------------------  1.2 Scattering
# Scattering function is provided
1
# Scattering function
3 4
   0    0    0    0    ## 0
   0    1    0    0    ## i
   0    0    0    0    ## 0

# ----------------------------------------------  1.3 Access
# Access informations are provided
1
# Read access informations
1 4
   2    2    0    1    ## B[2*i+1]
# Write access informations
1 4
   1    1    0    0    ## A[i]

# ----------------------------------------------  1.4 Body
# Statement body is provided
1
# Original iterator names
i 
# Statement body
A[i]=B[2*(i)+1];


# =============================================== Options
<arrays>
2
1 A
2 B
</arrays>
